
Gurobi 11.0.2 (win64) logging started Wed Aug  7 21:14:18 2024

Set parameter LogFile to value "D:\Documenti\Scuola\Laurea magistrale unibs\laurea-unibs-mkfsp\output\2024-08-07T17_25_17.381079\logs\instance11_bucket6.log"
Set parameter TimeLimit to value 7.0973945899866521e+01
Set parameter MIPGap to value 0
Gurobi Optimizer version 11.0.2 build v11.0.2rc0 (win64 - Windows 10.0 (19045.2))

CPU model: Intel(R) Core(TM) i5-4670 CPU @ 3.40GHz, instruction set [SSE2|AVX|AVX2]
Thread count: 4 physical cores, 4 logical processors, using up to 4 threads

Optimize a model with 5498 rows, 24226 columns and 675190 nonzeros
Model fingerprint: 0x9a2042e4
Variable types: 0 continuous, 24226 integer (23943 binary)
Coefficient statistics:
  Matrix range     [1e+00, 9e+03]
  Objective range  [6e+02, 9e+03]
  Bounds range     [1e+00, 1e+00]
  RHS range        [1e+00, 1e+06]
Presolve time: 1.44s
Presolved: 5498 rows, 24226 columns, 675190 nonzeros
Variable types: 0 continuous, 24226 integer (23943 binary)
Deterministic concurrent LP optimizer: primal simplex, dual simplex, and barrier
Showing barrier log only...

Root barrier log...

Ordering time: 0.07s

Barrier statistics:
 AA' NZ     : 7.259e+05
 Factor NZ  : 8.147e+05 (roughly 16 MB of memory)
 Factor Ops : 2.665e+08 (less than 1 second per iteration)
 Threads    : 1

                  Objective                Residual
Iter       Primal          Dual         Primal    Dual     Compl     Time
   0   1.01043679e+08  1.09905964e+08  5.09e+06 0.00e+00  7.19e+05     2s
   1   2.00532300e+07  1.13110226e+08  8.80e+05 7.67e-13  1.34e+05     2s
   2   1.63364697e+06  1.04390633e+08  1.04e+04 1.02e-12  3.86e+03     3s
   3   1.44286297e+06  3.83010629e+07  1.00e+03 5.88e-12  9.30e+02     3s
   4   1.42775773e+06  4.30720573e+06  1.31e-13 4.12e-13  6.64e+01     3s
   5   1.48319897e+06  1.69885332e+06  4.57e-14 3.55e-14  4.97e+00     3s
   6   1.49190411e+06  1.50633227e+06  9.15e-14 3.91e-14  3.33e-01     3s
   7   1.49361395e+06  1.49831067e+06  3.34e-13 2.91e-14  1.08e-01     3s
   8   1.49443990e+06  1.49529280e+06  2.11e-12 3.73e-14  1.97e-02     3s
   9   1.49475614e+06  1.49506810e+06  1.72e-11 2.84e-14  7.19e-03     3s
  10   1.49484832e+06  1.49497170e+06  1.83e-11 3.55e-14  2.84e-03     3s
  11   1.49494259e+06  1.49495596e+06  1.86e-10 3.91e-14  3.08e-04     4s
  12   1.49495093e+06  1.49495262e+06  3.71e-10 3.91e-14  3.90e-05     4s
  13   1.49495156e+06  1.49495159e+06  2.90e-12 3.55e-14  6.79e-07     4s
  14   1.49495157e+06  1.49495158e+06  4.44e-08 3.91e-14  1.47e-07     4s
  15   1.49495158e+06  1.49495158e+06  3.23e-09 4.72e-14  2.12e-10     4s

Barrier solved model in 15 iterations and 4.09 seconds (2.98 work units)
Optimal objective 1.49495158e+06

  Building initial crossover basis                                 5s

Root crossover log...

     740 DPushes remaining with DInf 0.0000000e+00                 6s
       0 DPushes remaining with DInf 0.0000000e+00                 7s

   17516 PPushes remaining with PInf 0.0000000e+00                 7s
    6415 PPushes remaining with PInf 0.0000000e+00                10s
Concurrent spin time: 1.51s (can be avoided by choosing Method=3)

Solved with dual simplex

Root simplex log...

Iteration    Objective       Primal Inf.    Dual Inf.      Time
    7185    1.4949516e+06   0.000000e+00   0.000000e+00     11s

Root relaxation: objective 1.494952e+06, 7185 iterations, 9.05 seconds (6.86 work units)
Total elapsed time = 23.51s (DegenMoves)
Total elapsed time = 34.27s (DegenMoves)
Total elapsed time = 46.01s (DegenMoves)
Total elapsed time = 56.28s (DegenMoves)

    Nodes    |    Current Node    |     Objective Bounds      |     Work
 Expl Unexpl |  Obj  Depth IntInf | Incumbent    BestBd   Gap | It/Node Time

     0     0 1494951.58    0 1974          - 1494951.58      -     -   70s

Cutting planes:
  Cover: 862
  Clique: 28
  MIR: 385

Explored 1 nodes (71975 simplex iterations) in 71.10 seconds (84.46 work units)
Thread count was 4 (of 4 available processors)

Solution count 0

Time limit reached
Best objective -, best bound 1.494948419215e+06, gap -
